c preprocessed version of 1hg7_graph, 66 vertices, 705 edges
p td 66 705
64 65
63 65
63 64
62 64
62 63
61 63
61 62
60 65
60 64
60 63
60 62
60 61
59 63
59 61
59 60
58 65
58 64
58 63
58 60
58 59
57 65
57 64
57 63
57 60
57 59
57 58
56 65
56 63
56 60
56 59
56 58
56 57
55 65
55 63
55 61
55 60
55 59
55 58
55 57
55 56
54 60
54 59
54 58
54 56
54 55
53 60
53 59
53 58
53 56
53 55
53 54
52 54
52 53
51 53
51 52
50 59
50 55
50 54
50 53
50 52
50 51
49 63
49 60
49 59
49 58
49 56
49 55
49 54
49 53
49 52
49 51
49 50
48 59
48 55
48 53
48 51
48 50
48 49
47 61
47 60
47 59
47 58
47 56
47 55
47 53
47 50
47 49
47 48
46 63
46 62
46 61
46 60
46 59
46 58
46 57
46 56
46 55
46 49
46 48
46 47
45 63
45 61
45 60
45 59
45 58
45 57
45 56
45 55
45 53
45 50
45 49
45 48
45 47
45 46
44 63
44 62
44 61
44 60
44 55
44 49
44 46
44 45
43 64
43 63
43 62
43 61
43 60
43 57
43 55
43 49
43 46
43 45
43 44
42 60
42 44
42 43
41 60
41 43
41 42
40 65
40 64
40 63
40 61
40 60
40 59
40 57
40 56
40 55
40 54
40 53
40 49
40 45
40 44
40 43
40 42
40 41
39 65
39 64
39 63
39 62
39 60
39 57
39 55
39 43
39 41
39 40
38 63
38 43
38 42
38 41
38 40
38 39
37 63
37 60
37 55
37 49
37 45
37 41
37 40
37 39
37 38
36 65
36 64
36 63
36 60
36 57
36 55
36 43
36 40
36 39
36 38
36 37
35 65
35 40
35 39
35 38
35 37
35 36
34 55
34 41
34 40
34 38
34 37
34 36
34 35
33 65
33 63
33 60
33 57
33 40
33 39
33 37
33 36
33 35
33 34
32 65
32 64
32 63
32 60
32 59
32 58
32 57
32 56
32 55
32 54
32 53
32 49
32 45
32 43
32 40
32 39
32 38
32 37
32 36
32 35
32 34
32 33
31 65
31 63
31 60
31 59
31 58
31 57
31 56
31 55
31 54
31 53
31 49
31 40
31 34
31 33
31 32
30 65
30 57
30 56
30 54
30 36
30 35
30 34
30 33
30 32
30 31
29 59
29 58
29 57
29 56
29 54
29 53
29 31
29 30
28 56
28 54
28 31
28 30
28 29
27 56
27 55
27 54
27 53
27 52
27 51
27 50
27 32
27 31
27 30
27 29
27 28
26 54
26 34
26 30
26 28
26 27
25 55
25 54
25 53
25 52
25 51
25 37
25 34
25 31
25 28
25 27
25 26
24 55
24 54
24 41
24 40
24 38
24 37
24 36
24 35
24 34
24 33
24 32
24 27
24 26
24 25
23 55
23 54
23 53
23 52
23 51
23 37
23 34
23 27
23 25
23 24
22 63
22 60
22 59
22 55
22 54
22 53
22 49
22 45
22 43
22 41
22 40
22 39
22 38
22 37
22 36
22 35
22 34
22 33
22 32
22 31
22 24
22 23
21 63
21 60
21 59
21 55
21 53
21 51
21 49
21 48
21 45
21 44
21 43
21 41
21 40
21 37
21 32
21 23
21 22
20 41
20 37
20 23
20 22
20 21
19 41
19 40
19 38
19 37
19 34
19 24
19 23
19 22
19 21
19 20
18 45
18 42
18 41
18 40
18 37
18 22
18 21
18 20
18 19
17 63
17 61
17 60
17 59
17 55
17 53
17 49
17 47
17 46
17 45
17 44
17 43
17 42
17 41
17 40
17 39
17 38
17 37
17 36
17 34
17 32
17 24
17 23
17 22
17 21
17 20
17 19
17 18
16 61
16 60
16 45
16 44
16 43
16 42
16 41
16 40
16 22
16 21
16 18
16 17
15 61
15 60
15 59
15 55
15 49
15 48
15 45
15 44
15 40
15 22
15 21
15 20
15 18
15 17
15 16
14 61
14 49
14 48
14 47
14 46
14 45
14 44
14 16
14 15
13 61
13 49
13 48
13 47
13 46
13 45
13 44
13 15
13 14
12 51
12 50
12 49
12 48
12 47
12 45
12 21
12 20
12 18
12 17
12 16
12 15
12 14
12 13
11 63
11 60
11 59
11 55
11 53
11 51
11 50
11 49
11 48
11 47
11 46
11 45
11 44
11 43
11 40
11 37
11 32
11 22
11 21
11 20
11 18
11 17
11 16
11 15
11 14
11 13
11 12
10 55
10 53
10 52
10 51
10 50
10 49
10 48
10 47
10 45
10 21
10 15
10 13
10 12
10 11
9 55
9 51
9 49
9 48
9 45
9 23
9 22
9 21
9 20
9 18
9 17
9 15
9 12
9 11
9 10
8 55
8 52
8 51
8 49
8 37
8 34
8 25
8 24
8 23
8 22
8 21
8 20
8 19
8 17
8 11
8 10
8 9
7 63
7 60
7 59
7 56
7 55
7 54
7 53
7 52
7 51
7 50
7 49
7 48
7 47
7 45
7 40
7 37
7 32
7 27
7 25
7 23
7 22
7 21
7 17
7 15
7 12
7 11
7 10
7 9
7 8
6 56
6 55
6 54
6 53
6 52
6 51
6 49
6 37
6 34
6 32
6 31
6 30
6 29
6 28
6 27
6 26
6 25
6 24
6 23
6 22
6 21
6 17
6 11
6 8
6 7
5 65
5 63
5 60
5 59
5 57
5 56
5 55
5 54
5 53
5 49
5 45
5 43
5 41
5 40
5 39
5 38
5 37
5 36
5 35
5 34
5 33
5 32
5 31
5 27
5 25
5 24
5 23
5 22
5 21
5 19
5 17
5 11
5 8
5 7
5 6
4 56
4 55
4 54
4 53
4 52
4 49
4 40
4 37
4 34
4 33
4 32
4 31
4 30
4 29
4 28
4 27
4 26
4 25
4 24
4 23
4 22
4 7
4 6
4 5
3 54
3 37
3 35
3 34
3 33
3 30
3 27
3 26
3 25
3 24
3 23
3 22
3 6
3 5
3 4
2 65
2 36
2 35
2 34
2 33
2 31
2 30
2 29
2 28
2 27
2 26
2 24
2 4
2 3
1 34
1 33
1 28
1 26
1 24
1 3
1 2
0 30
0 28
0 26
0 3
0 2
0 1
